43 415
3 4 5 8 9 11 12 13 14 15 16 19 20 21 23 24 27 28 29 30 34 35 36 37 40
2 3 4 6 8 10 11 12 17 21 22 25 27 28 29 31 34 36 37 41 42
1 8 9 10 12 13 17 18 20 21 26 27 28 31 32 33 35 39 42
0 1 4 7 12 14 16 18 19 20 25 26 28 30 31 33 38 40 41 42
0 1 3 5 6 7 9 10 12 14 16 18 21 22 23 24 26 29 32 33 34 35 40 41
0 4 8 14 16 17 18 21 22 23 29 31 33 36 38 42
1 4 10 11 12 14 16 21 24 25 27 32 36 37 38 39 41
3 4 8 9 10 12 14 17 19 21 23 24 33 34 35 36 37 40 41 42
0 1 2 5 7 12 14 16 17 22 24 26 27 29 36 42
0 2 4 7 11 12 13 16 17 19 20 29 31 32 34 37 38 40 42
1 2 4 6 7 11 13 15 16 19 25 27 28 30 31 33 34 35 42
0 1 6 9 10 12 14 15 18 25 29 30 32 34 37 38 39 40 41
0 1 2 3 4 6 7 8 9 11 13 14 17 18 19 20 21 23 25 27 30 34 35 40
0 2 9 10 12 14 16 17 19 20 21 22 24 27 29 30 32 33 35 36 40 41 42
0 3 4 5 6 7 8 11 12 13 19 20 21 24 25 26 27 29 30 32 33 37 38 39 41 42
0 10 11 16 18 19 20 21 25 27 40
0 3 4 5 6 8 9 10 13 15 17 19 20 22 24 29 35 40
1 2 5 7 8 9 12 13 16 21 22 24 27 32 33 36 39 41 42
2 3 4 5 11 12 15 20 23 26 28 30 31 32 34 38 39 40 42
0 3 7 9 10 12 13 14 15 16 21 22 23 28 30 31 32 35 37 39 40 42
0 2 3 9 12 13 14 15 16 18 21 22 25 27 29 30 32 33 35 36 37 38 40
0 1 2 4 5 6 7 12 13 14 15 17 19 20 22 23 27 28 30 31 32 36 37 40 41
1 4 5 8 13 16 17 19 20 21 23 24 28 29 30 33 34 36 38 40 41
0 4 5 7 12 18 19 21 22 24 31 37 40
0 4 6 7 8 13 14 16 17 22 23 26 27 30 36 37 38 39 40 41
1 3 6 10 11 12 14 15 20 26 28 29 31 32 33 34 38 41
2 3 4 8 14 18 24 25 27 30
0 1 2 6 8 10 12 13 14 15 17 20 21 24 26 28 29 31 33 34 35 36 39
0 1 2 3 10 18 19 21 22 25 27 32 38 40 42
0 1 4 5 8 9 11 13 14 16 20 22 25 27 30 34 35 38 40
0 3 10 11 12 13 14 18 19 20 21 22 24 26 29 31 33 34 35 42
1 2 3 5 9 10 18 19 21 23 25 27 30 32 36 38 39 40 41 42
2 4 6 9 11 13 14 17 18 19 20 21 25 28 31 33 34 35 39 41 42
2 3 4 5 7 10 13 14 17 20 22 25 27 30 32 37 39
0 1 4 7 9 10 11 12 18 22 25 27 29 30 32 35
0 2 4 7 10 12 13 16 19 20 27 29 30 32 34 37 40 41
0 1 5 6 7 8 13 17 20 21 22 24 27 31 42
0 1 6 7 9 11 14 19 20 21 23 24 33 35 38 39 40 41 42
3 5 6 9 11 14 18 20 22 24 25 28 29 31 37 39 41 42
2 6 11 14 17 18 19 24 27 31 32 33 37 38 40 41
0 3 4 7 9 11 12 13 15 16 18 19 20 21 22 23 24 28 29 31 35 37 39 41
1 3 4 6 7 11 13 14 17 21 22 24 25 31 32 35 37 38 39 40 42
1 2 3 5 7 8 9 10 13 14 17 18 19 28 30 31 32 36 37 38 41
